c 5 __UCLIBC_HAS_IPV6__
c 4 __UCLIBC_HAS_SOCKET__
c 6 __UCLIBC_HAS_IPV4__
c 3 __UCLIBC_HAS_FLOATS__
c 1 __UCLIBC_HAS_XLOCALE__
c 2 __UCLIBC_HAS_LOCALE__
p cnf 6 3
-1 2 -3 -4 1
-1 2 -3 -5 1
-1 2 -3 -6 1
